p cnf 7230 16
861 -1105 0
861 -1108 0
-863 -1100 1101 0
863 -1102 0
-861 -1103 1104 0
861 -1111 0
-861 -1106 1107 0
-861 -1109 1110 0
-1104 1105 0
-1101 1102 0
1109 -1111 0
-1107 1108 0
1106 -1108 0
1103 -1105 0
1100 -1102 0
-1110 1111 0
